&CONTROL
  calculation = 'scf'
  etot_conv_thr =   4.0000000000e-05
  forc_conv_thr =   1.0000000000e-04
  outdir = './temp_hexag/'
  prefix = 'aiida'
  pseudo_dir = '../SSSP_1.3.0_PBE_efficiency/'
  tprnfor = .true.
  tstress = .true.
  verbosity = 'high'
/
&SYSTEM
  degauss =   1.4699723600e-02
  ecutrho =   4.0000000000e+02
  ecutwfc =   5.0000000000e+01
  ibrav = 0
  nat = 4
  nosym = .false.
  ntyp = 2
  occupations = 'smearing'
  smearing = 'cold'
/
&ELECTRONS
  conv_thr =   2.0000000000e-8
  electron_maxstep = 100
  mixing_beta =   4.0000000000e-01
/
ATOMIC_SPECIES
O      15.9994 O.pbe-n-kjpaw_psl.0.1.UPF
Zn     65.38 Zn_pbe_v1.uspp.F.UPF
ATOMIC_POSITIONS crystal
Zn           0.6666666700       0.3333333300       0.5005917000 
Zn           0.3333333300       0.6666666700       0.0005917000 
O            0.6666666700       0.3333333300       0.8797183000 
O            0.3333333300       0.6666666700       0.3797183000 
K_POINTS automatic
12 12 8 0 0 0
CELL_PARAMETERS angstrom
	3.2373510200	0.0000000000	0.0000000000
	-1.6186755100	2.8036282243	0.0280362822
	0.0000000000	0.0522206130	5.2220613000





