&CONTROL
  calculation = 'vc-relax'
  etot_conv_thr =   1.6000000000d-04
  forc_conv_thr =   1.0000000000d-04
  outdir = './temp_cubic/'
  prefix = 'aiida'
  pseudo_dir = '../SSSP_1.3.0_PBE_efficiency/'
  tprnfor = .true.
  tstress = .true.
  verbosity = 'high'
/
&SYSTEM
  degauss =   1.4699723600e-02
  ecutrho =   4.0000000000e+02
  ecutwfc =   5.0000000000e+01
  ibrav = 0
  nat = 15
  nosym = .false.
  ntyp = 2
  occupations = 'smearing'
  smearing = 'cold'
/
&ELECTRONS
  conv_thr =   8.0000000000e-08
  electron_maxstep = 100
  mixing_beta =   4.0000000000e-01
/
&IONS
/
&CELL
/
ATOMIC_SPECIES
O      15.9994 O.pbe-n-kjpaw_psl.0.1.UPF
Zn     65.38 Zn_pbe_v1.uspp.F.UPF
ATOMIC_POSITIONS crystal
Zn           0.0000000000       0.0000000000       0.0000000000 
O            0.2500000000       0.2500000000       0.2500000000 
Zn           0.0000000000       0.0000000000       0.5000000000 
O            0.2500000000       0.2500000000       0.7500000000 
Zn           0.0000000000       0.5000000000       0.0000000000 
O            0.2500000000       0.7500000000       0.2500000000 
Zn           0.0000000000       0.5000000000       0.5000000000 
O            0.2500000000       0.7500000000       0.7500000000 
Zn           0.5000000000       0.0000000000       0.0000000000 
O            0.7500000000       0.2500000000       0.2500000000 
Zn           0.5000000000       0.0000000000       0.5000000000 
O            0.7500000000       0.2500000000       0.7500000000 
Zn           0.5000000000       0.5000000000       0.0000000000 
O            0.7500000000       0.7500000000       0.2500000000 
Zn           0.5000000000       0.5000000000       0.5000000000 
K_POINTS automatic
6 6 6 0 0 0
CELL_PARAMETERS angstrom
      5.3837100000       0.0000000000       0.0000000000
      0.0000000000       5.3837100000       0.0000000000
      0.0000000000       0.0000000000       5.3837100000