&CONTROL
  calculation = 'scf'
  etot_conv_thr =   5.4000000000e-04
  forc_conv_thr =   1.0000000000e-04
  outdir = './temp_cubic_bulk/'
  prefix = 'aiida'
  pseudo_dir = '../SSSP_1.3.0_PBE_efficiency/'
  tprnfor = .true.
  tstress = .true.
  verbosity = 'high'
/
&SYSTEM
  degauss =   1.4699723600e-02
  ecutrho =   4.0000000000e+02
  ecutwfc =   5.0000000000e+01
  ibrav = 0
  nat = 54
  nosym = .false.
  ntyp = 2
  occupations = 'smearing'
  smearing = 'cold'
/
&ELECTRONS
  conv_thr =   1.0000000000e-8
  electron_maxstep = 80
  mixing_beta =   4.0000000000e-01
/
&IONS
/
&CELL
/
ATOMIC_SPECIES
O      15.9994 O.pbe-n-kjpaw_psl.0.1.UPF
Zn     65.38 Zn_pbe_v1.uspp.F.UPF
ATOMIC_POSITIONS crystal
Zn           0.0000000000       0.0000000000       0.0000000000 
O            0.1666700000       0.1666700000       0.1666700000 
Zn           0.0000000000       0.0000000000       0.3333300000 
O            0.1666700000       0.1666700000       0.5000000000 
Zn           0.0000000000       0.0000000000       0.6666700000 
O            0.1666700000       0.1666700000       0.8333300000 
Zn           0.0000000000       0.3333300000       0.0000000000 
O            0.1666700000       0.5000000000       0.1666700000 
Zn           0.0000000000       0.3333300000       0.3333300000 
O            0.1666700000       0.5000000000       0.5000000000 
Zn           0.0000000000       0.3333300000       0.6666700000 
O            0.1666700000       0.5000000000       0.8333300000 
Zn           0.0000000000       0.6666700000       0.0000000000 
O            0.1666700000       0.8333300000       0.1666700000 
Zn           0.0000000000       0.6666700000       0.3333300000 
O            0.1666700000       0.8333300000       0.5000000000 
Zn           0.0000000000       0.6666700000       0.6666700000 
O            0.1666700000       0.8333300000       0.8333300000 
Zn           0.3333300000       0.0000000000       0.0000000000 
O            0.5000000000       0.1666700000       0.1666700000 
Zn           0.3333300000       0.0000000000       0.3333300000 
O            0.5000000000       0.1666700000       0.5000000000 
Zn           0.3333300000       0.0000000000       0.6666700000 
O            0.5000000000       0.1666700000       0.8333300000 
Zn           0.3333300000       0.3333300000       0.0000000000 
O            0.5000000000       0.5000000000       0.1666700000 
Zn           0.3333300000       0.3333300000       0.3333300000 
O            0.5000000000       0.5000000000       0.5000000000 
Zn           0.3333300000       0.3333300000       0.6666700000 
O            0.5000000000       0.5000000000       0.8333300000 
Zn           0.3333300000       0.6666700000       0.0000000000 
O            0.5000000000       0.8333300000       0.1666700000 
Zn           0.3333300000       0.6666700000       0.3333300000 
O            0.5000000000       0.8333300000       0.5000000000 
Zn           0.3333300000       0.6666700000       0.6666700000 
O            0.5000000000       0.8333300000       0.8333300000 
Zn           0.6666700000       0.0000000000       0.0000000000 
O            0.8333300000       0.1666700000       0.1666700000 
Zn           0.6666700000       0.0000000000       0.3333300000 
O            0.8333300000       0.1666700000       0.5000000000 
Zn           0.6666700000       0.0000000000       0.6666700000 
O            0.8333300000       0.1666700000       0.8333300000 
Zn           0.6666700000       0.3333300000       0.0000000000 
O            0.8333300000       0.5000000000       0.1666700000 
Zn           0.6666700000       0.3333300000       0.3333300000 
O            0.8333300000       0.5000000000       0.5000000000 
Zn           0.6666700000       0.3333300000       0.6666700000 
O            0.8333300000       0.5000000000       0.8333300000 
Zn           0.6666700000       0.6666700000       0.0000000000 
O            0.8333300000       0.8333300000       0.1666700000 
Zn           0.6666700000       0.6666700000       0.3333300000 
O            0.8333300000       0.8333300000       0.5000000000 
Zn           0.6666700000       0.6666700000       0.6666700000 
O            0.8333300000       0.8333300000       0.8333300000 
K_POINTS automatic
4 4 4 0 0 0
CELL_PARAMETERS angstrom
      8.0755700000       0.0000000000       0.0000000000
      0.0000000000       8.0755700000       0.0000000000
      0.0000000000       0.0000000000       8.0755700000